Grasp exp. instance_n_20_m_10_id_2.lp tipoLifted 0 szPool 5 nIteration 50 alpha 0.6 
Academic license - for non-commercial use only
Read LP format model from file ../input/instancesGenerated/instance_n_20_m_10_id_2.lp
Reading time = 0.00 seconds
: 10 rows, 20 columns, 104 nonzeros
Optimize a model with 10 rows, 20 columns and 104 nonzeros
Variable types: 0 continuous, 20 integer (20 binary)
Coefficient statistics:
  Matrix range     [1e+00, 1e+01]
  Objective range  [1e+00, 1e+01]
  Bounds range     [1e+00, 1e+00]
  RHS range        [2e+01, 3e+01]
Found heuristic solution: objective 42.0000000

Explored 0 nodes (0 simplex iterations) in 0.00 seconds
Thread count was 1 (of 8 available processors)

Solution count 1: 42 
No other solutions better than 0

Solution limit reached
Best objective 4.200000000000e+01, best bound -, gap -
C_1:	 9.00 x_1  = 1.000000 + 8.00 x_2  = 0.000000 + 5.00 x_3  = 0.461994 + 5.00 x_7  = 0.000000 + 8.00 x_9  = 0.000000 + 2.00 x_10  = 0.891217 + 9.00 x_13  = 0.776061 + 3.00 x_15  = 0.245656 + 2.00 x_16  = 1.000000 + 7.00 x_18  = 0.499133 + 8.00 x_19  = 0.836518 <= 33.00
C_2:	 6.00 x_1  = 1.000000 + 8.00 x_2  = 0.000000 + 1.00 x_4  = 1.000000 + 10.00 x_5  = 0.199131 + 8.00 x_6  = 0.000000 + 5.00 x_8  = 1.000000 + 2.00 x_12  = 0.000000 + 2.00 x_13  = 0.776061 + 10.00 x_15  = 0.245656 + 10.00 x_16  = 1.000000 + 4.00 x_17  = 1.000000 + 2.00 x_20  = 1.000000 <= 34.00
C_3:	 3.00 x_1  = 1.000000 + 4.00 x_2  = 0.000000 + 3.00 x_3  = 0.461994 + 3.00 x_4  = 1.000000 + 4.00 x_5  = 0.199131 + 8.00 x_7  = 0.000000 + 10.00 x_8  = 1.000000 + 9.00 x_9  = 0.000000 + 1.00 x_10  = 0.891217 + 1.00 x_12  = 0.000000 + 1.00 x_14  = 1.000000 + 1.00 x_18  = 0.499133 + 5.00 x_20  = 1.000000 <= 26.00
C_4:	 6.00 x_4  = 1.000000 + 9.00 x_6  = 0.000000 + 6.00 x_7  = 0.000000 + 5.00 x_9  = 0.000000 + 1.00 x_10  = 0.891217 + 10.00 x_12  = 0.000000 + 8.00 x_15  = 0.245656 + 8.00 x_19  = 0.836518 <= 26.00
C_5:	 6.00 x_6  = 0.000000 + 10.00 x_7  = 0.000000 + 7.00 x_11  = 1.000000 + 6.00 x_14  = 1.000000 + 4.00 x_15  = 0.245656 + 2.00 x_18  = 0.499133 + 6.00 x_19  = 0.836518 <= 20.00
C_6:	 7.00 x_3  = 0.461994 + 1.00 x_5  = 0.199131 + 8.00 x_6  = 0.000000 + 2.00 x_7  = 0.000000 + 3.00 x_9  = 0.000000 + 6.00 x_10  = 0.891217 + 4.00 x_14  = 1.000000 + 5.00 x_15  = 0.245656 + 8.00 x_16  = 1.000000 + 10.00 x_18  = 0.499133 <= 27.00
C_7:	 6.00 x_1  = 1.000000 + 4.00 x_3  = 0.461994 + 9.00 x_4  = 1.000000 + 6.00 x_6  = 0.000000 + 10.00 x_7  = 0.000000 + 4.00 x_9  = 0.000000 + 5.00 x_12  = 0.000000 + 7.00 x_13  = 0.776061 + 6.00 x_14  = 1.000000 + 7.00 x_15  = 0.245656 + 2.00 x_16  = 1.000000 + 2.00 x_20  = 1.000000 <= 34.00
C_8:	 4.00 x_1  = 1.000000 + 8.00 x_2  = 0.000000 + 2.00 x_4  = 1.000000 + 8.00 x_6  = 0.000000 + 8.00 x_7  = 0.000000 + 9.00 x_9  = 0.000000 + 1.00 x_10  = 0.891217 + 2.00 x_15  = 0.245656 + 6.00 x_17  = 1.000000 + 5.00 x_18  = 0.499133 + 10.00 x_19  = 0.836518 <= 31.00
C_9:	 3.00 x_1  = 1.000000 + 3.00 x_4  = 1.000000 + 10.00 x_5  = 0.199131 + 4.00 x_6  = 0.000000 + 6.00 x_7  = 0.000000 + 1.00 x_8  = 1.000000 + 1.00 x_11  = 1.000000 + 10.00 x_12  = 0.000000 + 2.00 x_14  = 1.000000 + 7.00 x_16  = 1.000000 + 1.00 x_18  = 0.499133 + 3.00 x_19  = 0.836518 + 6.00 x_20  = 1.000000 <= 28.00
C_10:	 3.00 x_5  = 0.199131 + 7.00 x_8  = 1.000000 + 7.00 x_9  = 0.000000 + 4.00 x_10  = 0.891217 + 6.00 x_12  = 0.000000 + 3.00 x_13  = 0.776061 + 3.00 x_19  = 0.836518 <= 16.00
Solution initial: 73.848370 
Number Constraints Used in Cover:10
GRASP Method!
Number cuts repeat: 0
value: 73.848370
Number Constraints Used in Cover:19
GRASP Method!
Number cuts repeat: 0
value: 73.848370
Number Constraints Used in Cover:29
GRASP Method!
Number cuts repeat: 0
value: 73.848370
Number Constraints Used in Cover:38
GRASP Method!
Number cuts repeat: 0
value: 73.848370
Number Constraints Used in Cover:43
GRASP Method!
Number cuts repeat: 0
value: 73.848370
Number Constraints Used in Cover:54
GRASP Method!
Number cuts repeat: 0
value: 73.848370
Number Constraints Used in Cover:61
GRASP Method!
Number cuts repeat: 0
value: 73.848370
Number Constraints Used in Cover:78
GRASP Method!
Number cuts repeat: 0
value: 73.848370
Number Constraints Used in Cover:95
GRASP Method!
Number cuts repeat: 0
value: 73.848370
Number Constraints Used in Cover:102
GRASP Method!
Number cuts repeat: 0
value: 73.848055
Number Constraints Used in Cover:106
GRASP Method!
Number cuts repeat: 0
value: 73.848055
Number Constraints Used in Cover:119
GRASP Method!
Number cuts repeat: 0
value: 73.848055
Number Constraints Used in Cover:135
GRASP Method!
Number cuts repeat: 0
value: 73.848055
Number Constraints Used in Cover:141
GRASP Method!
Number cuts repeat: 0
value: 73.848055
Number Constraints Used in Cover:159
GRASP Method!
Number cuts repeat: 0
value: 73.848055
Number Constraints Used in Cover:177
GRASP Method!
Number cuts repeat: 0
value: 73.848055
Number Constraints Used in Cover:189
GRASP Method!
Number cuts repeat: 0
value: 73.848055
Number Constraints Used in Cover:216
GRASP Method!
Number cuts repeat: 0
value: 73.848055
Number Constraints Used in Cover:236
GRASP Method!
Number cuts repeat: 0
value: 73.848055
Number Constraints Used in Cover:264
GRASP Method!
Number cuts repeat: 0
value: 73.848055
Number Constraints Used in Cover:286
GRASP Method!
Number cuts repeat: 0
value: 73.848055
Number Constraints Used in Cover:312
GRASP Method!
Number cuts repeat: 0
value: 73.848055
Number Constraints Used in Cover:333
GRASP Method!
Number cuts repeat: 0
value: 73.848055
Number Constraints Used in Cover:365
GRASP Method!
Number cuts repeat: 0
value: 73.848055
Number Constraints Used in Cover:395
GRASP Method!
Number cuts repeat: 0
value: 73.848055
Number Constraints Used in Cover:428
GRASP Method!
Number cuts repeat: 0
value: 73.848055
Number Constraints Used in Cover:457
GRASP Method!
Number cuts repeat: 0
value: 73.848055
Number Constraints Used in Cover:485
GRASP Method!
Number cuts repeat: 0
value: 73.848055
Number Constraints Used in Cover:515
GRASP Method!
Number cuts repeat: 0
value: 73.848055
Number Constraints Used in Cover:540
GRASP Method!
Number cuts repeat: 0
value: 73.848055
Number Constraints Used in Cover:567
GRASP Method!
Number cuts repeat: 0
value: 73.848055
Number Constraints Used in Cover:593
GRASP Method!
Number cuts repeat: 0
value: 73.848055
Number Constraints Used in Cover:615
GRASP Method!
Number cuts repeat: 0
value: 73.848055
Number Constraints Used in Cover:634
GRASP Method!
Number cuts repeat: 0
value: 73.848055
Number Constraints Used in Cover:658
GRASP Method!
Number cuts repeat: 0
value: 73.848055
Number Constraints Used in Cover:676
GRASP Method!
Number cuts repeat: 0
value: 73.848055
Number Constraints Used in Cover:693
GRASP Method!
Number cuts repeat: 0
value: 73.848055
Number Constraints Used in Cover:707
GRASP Method!
Number cuts repeat: 0
value: 73.848055
Number Constraints Used in Cover:721
GRASP Method!
Number cuts repeat: 0
value: 73.848055
Number Constraints Used in Cover:735
GRASP Method!
Number cuts repeat: 0
value: 73.848055
Number Constraints Used in Cover:742
GRASP Method!
Number cuts repeat: 0
value: 73.848055
Number Constraints Used in Cover:753
GRASP Method!
Number cuts repeat: 0
value: 73.848055
Number Constraints Used in Cover:767
GRASP Method!
Number cuts repeat: 0
value: 73.848055
Number Constraints Used in Cover:777
GRASP Method!
Number cuts repeat: 0
value: 73.848055
Number Constraints Used in Cover:796
GRASP Method!
Number cuts repeat: 0
value: 73.848055
Number Constraints Used in Cover:808
GRASP Method!
Number cuts repeat: 0
value: 73.848055
Number Constraints Used in Cover:811
GRASP Method!
Number cuts repeat: 0
value: 73.848055
Number Constraints Used in Cover:818
GRASP Method!
Number cuts repeat: 0
value: 73.848055
Number Constraints Used in Cover:825
GRASP Method!
Number cuts repeat: 0
value: 73.848055
Number Constraints Used in Cover:842
GRASP Method!
Number cuts repeat: 0
value: 73.848055
Number Constraints Used in Cover:848
GRASP Method!
Number cuts repeat: 0
value: 73.848055
Number Constraints Used in Cover:856
GRASP Method!
Number cuts repeat: 0
value: 73.848055
Number Constraints Used in Cover:865
GRASP Method!
Number cuts repeat: 0
value: 73.848055
Number Constraints Used in Cover:874
GRASP Method!
Number cuts repeat: 0
value: 73.848055
Number Constraints Used in Cover:881
GRASP Method!
Number cuts repeat: 0
value: 73.848055
Number Constraints Used in Cover:884
GRASP Method!
Number cuts repeat: 0
value: 73.848055
Number Constraints Used in Cover:889
GRASP Method!
Number cuts repeat: 0
value: 73.848055
Number Constraints Used in Cover:897
GRASP Method!
Number cuts repeat: 0
value: 73.848055
Number Constraints Used in Cover:905
GRASP Method!
Number cuts repeat: 0
value: 73.848055
Number Constraints Used in Cover:910
GRASP Method!
Number cuts repeat: 0
value: 73.848055
Number Constraints Used in Cover:915
GRASP Method!
Number cuts repeat: 0
value: 73.848055
Number Constraints Used in Cover:920
GRASP Method!
Number cuts repeat: 0
value: 73.848055
Number Cuts Final: 917
